743.31 0
0 40 39 9 32 44 3 17 0 
0 48 47 36 69 71 60 70 20 37 5 29 45 0 
0 27 15 57 13 54 19 59 14 35 7 0 
0 68 30 74 21 61 28 62 2 6 0 
0 67 34 46 8 52 4 75 0 
0 53 11 66 65 38 10 58 0 
0 73 1 22 64 42 43 41 56 23 63 33 0 
0 26 12 72 31 55 25 50 18 24 49 16 51 0 
